# comment

# another comment
xred 0 0 0
     0.5 0.5 0.5
acell 0.1 0.2 0.3
rprim 1.0 1.0 0.0
      0.0 2.0 2.0
      3.0 0.0 3.0
