# comment

# another comment
xred 0 0 0
     0.5 0.5 0.5
acell 1.5 3.0 6.0
rprim 1.0 1.0 0.0
      0.0 1.0 1.0
      1.0 0.0 1.0
