&control
    calculation='scf'
    prefix='espresso'
    pseudo_dir = './'
    outdir='./output/'
/
&system
    ibrav = 0
    nat = 2
    ntyp = 1
    ecutwfc = 30.0
    ecutrho = 120.0
/
&electrons
   conv_thr =  1.0d-6
   mixing_beta = 0.7
/
K_POINTS {automatic}
 1 1 1  0 0 0
ATOMIC_SPECIES
 Si   1.0  Si.UPF
ATOMIC_POSITIONS crystal
Si       0.0   0.0   0.0
Si       0.25  0.25  0.25
