&control
    calculation='scf'
    prefix='espresso'
    pseudo_dir = '../'
    outdir='./output/'
    tprnfor = .true.
    tstress = .true.
/
&system
    ibrav = 0
    nat = 16
    ntyp = 3
    ecutwfc = 60.0
    ecutrho = 200.0
/
&electrons
   conv_thr =  1.0d-8
   mixing_beta = 0.7
/
&IONS
/
K_POINTS {automatic}
 9 9 5  0 0 0

ATOMIC_SPECIES
 Mg   24.30 Mg.pz-n-vbc.UPF
  O   16.00  O.pz-rrkjus.UPF

ATOMIC_POSITIONS crystal
Mg       0.000000000   0.000000000   0.008718213
Mg       0.000000000   0.500000000   0.241281605
Mg       0.500000000   0.000000000   0.241281605
Mg       0.500000000   0.500000000   0.008718055
O        0.000000000   0.500000000   0.012704055
O        0.000000000   0.500000000   0.484086595
O        0.000000000   0.000000000   0.237295919
O        0.000000000   0.000000000   0.765914423
CELL_PARAMETERS bohr
  1.5 1.5 0.0
  0.0 3.0 3.0
  6.0 0.0 6.0
